100
128
12
7
7
60
11
31
29
13
2
40
7
44
1
32
6
46
44
36
34
33
15
9
34
15
60
30
1
21
3
52
24
31
57
49
63
50
33
31
14
3
35
38
5
47
60
52
34
62
12
4
30
48
49
4
1
1
54
44
61
35
41
30
39
33
35
31
58
47
35
2
29
1
5
4
32
64
63
4
4
13
52
38
1
26
33
38
15
26
5
49
4
42
5
46
60
38
63
5
4
38